TOUR_SECTION
1
39
69
160
21
134
164
33
100
199
20
8
65
120
31
113
48
88
25
63
104
47
123
106
87
149
173
151
58
144
174
158
129
64
4
180
127
50
70
131
42
55
26
84
135
80
110
43
27
157
114
90
46
190
124
165
187
68
52
116
109
119
117
95
133
78
72
97
175
81
15
137
23
138
36
40
142
171
45
136
77
176
98
28
32
60
163
145
193
147
12
156
191
30
89
105
201
200
150
3
198
67
76
140
111
172
195
56
11
6
13
62
93
143
7
74
125
34
146
9
29
75
82
170
71
5
14
154
51
18
59
44
24
155
16
169
10
159
103
122
49
112
141
108
99
118
102
139
184
188
92
179
17
96
186
168
128
54
194
2
189
22
167
41
181
183
86
73
126
37
57
61
53
161
91
115
153
132
130
101
178
177
166
185
162
19
83
35
148
121
38
182
94
196
107
79
192
152
66
197
85
-1
EOF